Minimize
  - 9 y_0 - 18 y_1 - 7 y_2 - 19 y_3 - 20 y_4 - 16 y_5 - 29 y_6 - 31 y_7
   - 15 y_8 - 12 y_9 - 20 y_10 - 2 y_11 - 27 y_12 - 18 y_13 - 20 y_14
   - 37 y_15 - 31 y_16 - 12 y_17 - 16 y_18 - 21 y_19 - 26 y_20 - 33 y_21
   - 34 y_22 - 13 y_23 - 14 y_25 - 22 y_26 - 17 y_27 - 21 y_28 - 28 y_29
   - 15 y_30 - 20 y_31 - 31 y_32 - 9 y_33 - 19 y_34 - 26 y_35 - 19 y_36
   - 25 y_37 - 22 y_38 - 27 y_39 - 10 y_40 - 18 y_41 - 31 y_42 - 17 y_43
   - 27 y_44 - 16 y_45 - 21 y_46 - 19 y_47 - 25 y_48 - 16 y_49
   + 1001 Constant
Subject To
 c_0: y_33 = 1
 c_1_0: y_0 + y_40 >= 1
 c_1_1: y_1 >= 1
 c_1_2: y_2 >= 1
 c_1_3: y_3 >= 1
 c_1_4: y_4 + y_26 >= 1
 c_1_5: y_5 >= 1
 c_1_6: y_6 >= 1
 c_1_7: y_7 >= 1
 c_1_8: y_8 + y_25 >= 1
 c_1_9: y_9 >= 1
 c_1_10: y_10 >= 1
 c_1_11: y_11 + y_24 >= 1
 c_1_12: y_12 >= 1
 c_1_13: y_13 >= 1
 c_1_14: y_14 >= 1
 c_1_15: y_15 >= 1
 c_1_16: y_16 >= 1
 c_1_17: y_17 >= 1
 c_1_18: y_18 >= 1
 c_1_19: y_19 >= 1
 c_1_20: y_20 >= 1
 c_1_21: y_21 + y_22 >= 1
 c_1_22: y_21 + y_22 >= 1
 c_1_23: y_23 >= 1
 c_1_24: y_11 + y_24 >= 1
 c_1_25: y_8 + y_25 >= 1
 c_1_26: y_4 + y_26 >= 1
 c_1_27: y_27 >= 1
 c_1_28: y_28 >= 1
 c_1_29: y_29 >= 1
 c_1_30: y_30 >= 1
 c_1_31: y_31 + y_47 >= 1
 c_1_32: y_32 >= 1
 c_1_33: y_33 >= 1
 c_1_34: y_34 >= 1
 c_1_35: y_35 >= 1
 c_1_36: y_36 >= 1
 c_1_37: y_37 >= 1
 c_1_38: y_38 >= 1
 c_1_39: y_39 >= 1
 c_1_40: y_0 + y_40 >= 1
 c_1_41: y_41 >= 1
 c_1_42: y_42 >= 1
 c_1_43: y_43 >= 1
 c_1_44: y_44 >= 1
 c_1_45: y_45 >= 1
 c_1_46: y_46 >= 1
 c_1_47: y_31 + y_47 >= 1
 c_1_48: y_48 >= 1
 c_1_49: y_49 >= 1
Bounds
 Constant = 1
Binaries
 y_0 y_1 y_2 y_3 y_4 y_5 y_6 y_7 y_8 y_9 y_10 y_11 y_12 y_13 y_14 y_15 y_16
 y_17 y_18 y_19 y_20 y_21 y_22 y_23 y_24 y_25 y_26 y_27 y_28 y_29 y_30 y_31
 y_32 y_33 y_34 y_35 y_36 y_37 y_38 y_39 y_40 y_41 y_42 y_43 y_44 y_45 y_46
 y_47 y_48 y_49
End
